6 1
7 1
8 1
9 0
10 2
11 4
5 13
6 14
7 12
8 10
9 14
10 11
11 14
5 20
6 21
7 23
8 21
9 23
10 20
11 24
5 33
6 33
7 33
8 34
9 33
10 34
11 34
5 43
6 43
7 41
8 43
9 42
10 43
11 41
5 54
6 54
7 53
8 54
9 54
10 54
11 52
5 61
6 60
7 61
8 62
9 63
10 62
11 61
5 74
6 72
7 74
8 72
9 74
10 73
11 70
